c nIsolatedPIs 0
c maxPI 128
p cnf 697 1708
c gate 129 23 -25 0
23 -129 0
-25 -129 0
-23 25 129 0
c gate 130 -23 25 0
-23 -130 0
25 -130 0
23 -25 130 0
c gate 131 -129 -130 0
-129 -131 0
-130 -131 0
129 130 131 0
c gate 132 -21 131 0
-21 -132 0
131 -132 0
21 -131 132 0
c gate 133 21 -131 0
21 -133 0
-131 -133 0
-21 131 133 0
c gate 134 -26 -27 0
-26 -134 0
-27 -134 0
26 27 134 0
c gate 135 26 27 0
26 -135 0
27 -135 0
-26 -27 135 0
c gate 136 -134 -135 0
-134 -136 0
-135 -136 0
134 135 136 0
c gate 137 -133 -136 0
-133 -137 0
-136 -137 0
133 136 137 0
c gate 138 -132 137 0
-132 -138 0
137 -138 0
132 -137 138 0
c gate 139 -23 -27 0
-23 -139 0
-27 -139 0
23 27 139 0
c gate 140 23 27 0
23 -140 0
27 -140 0
-23 -27 140 0
c gate 141 -139 -140 0
-139 -141 0
-140 -141 0
139 140 141 0
c gate 142 -22 -141 0
-22 -142 0
-141 -142 0
22 141 142 0
c gate 143 22 130 0
22 -143 0
130 -143 0
-22 -130 143 0
c gate 144 -21 -26 0
-21 -144 0
-26 -144 0
21 26 144 0
c gate 145 -129 144 0
-129 -145 0
144 -145 0
129 -144 145 0
c gate 146 -143 145 0
-143 -146 0
145 -146 0
143 -145 146 0
c gate 147 -142 146 0
-142 -147 0
146 -147 0
142 -146 147 0
c gate 148 -26 133 0
-26 -148 0
133 -148 0
26 -133 148 0
c gate 149 -23 -25 0
-23 -149 0
-25 -149 0
23 25 149 0
c gate 150 -21 26 0
-21 -150 0
26 -150 0
21 -26 150 0
c gate 151 149 150 0
149 -151 0
150 -151 0
-149 -150 151 0
c gate 152 -148 -151 0
-148 -152 0
-151 -152 0
148 151 152 0
c gate 153 -147 152 0
-147 -153 0
152 -153 0
147 -152 153 0
c gate 154 -138 153 0
-138 -154 0
153 -154 0
138 -153 154 0
c gate 155 -25 -154 0
-25 -155 0
-154 -155 0
25 154 155 0
c gate 156 -27 -155 0
-27 -156 0
-155 -156 0
27 155 156 0
c gate 157 -19 -20 0
-19 -157 0
-20 -157 0
19 20 157 0
c gate 158 -17 -18 0
-17 -158 0
-18 -158 0
17 18 158 0
c gate 159 -15 -16 0
-15 -159 0
-16 -159 0
15 16 159 0
c gate 160 -12 -14 0
-12 -160 0
-14 -160 0
12 14 160 0
c gate 161 -10 -11 0
-10 -161 0
-11 -161 0
10 11 161 0
c gate 162 -8 -9 0
-8 -162 0
-9 -162 0
8 9 162 0
c gate 163 -6 -7 0
-6 -163 0
-7 -163 0
6 7 163 0
c gate 164 -4 -5 0
-4 -164 0
-5 -164 0
4 5 164 0
c gate 165 -3 -128 0
-3 -165 0
-128 -165 0
3 128 165 0
c gate 166 164 -165 0
164 -166 0
-165 -166 0
-164 165 166 0
c gate 167 163 -166 0
163 -167 0
-166 -167 0
-163 166 167 0
c gate 168 162 -167 0
162 -168 0
-167 -168 0
-162 167 168 0
c gate 169 161 -168 0
161 -169 0
-168 -169 0
-161 168 169 0
c gate 170 160 -169 0
160 -170 0
-169 -170 0
-160 169 170 0
c gate 171 159 -170 0
159 -171 0
-170 -171 0
-159 170 171 0
c gate 172 158 -171 0
158 -172 0
-171 -172 0
-158 171 172 0
c gate 173 157 -172 0
157 -173 0
-172 -173 0
-157 172 173 0
c gate 174 157 158 0
157 -174 0
158 -174 0
-157 -158 174 0
c gate 175 159 160 0
159 -175 0
160 -175 0
-159 -160 175 0
c gate 176 161 162 0
161 -176 0
162 -176 0
-161 -162 176 0
c gate 177 175 176 0
175 -177 0
176 -177 0
-175 -176 177 0
c gate 178 -126 -127 0
-126 -178 0
-127 -178 0
126 127 178 0
c gate 179 163 178 0
163 -179 0
178 -179 0
-163 -178 179 0
c gate 180 164 165 0
164 -180 0
165 -180 0
-164 -165 180 0
c gate 181 179 180 0
179 -181 0
180 -181 0
-179 -180 181 0
c gate 182 177 181 0
177 -182 0
181 -182 0
-177 -181 182 0
c gate 183 174 182 0
174 -183 0
182 -183 0
-174 -182 183 0
c gate 184 -124 -125 0
-124 -184 0
-125 -184 0
124 125 184 0
c gate 185 -122 -123 0
-122 -185 0
-123 -185 0
122 123 185 0
c gate 186 -120 -121 0
-120 -186 0
-121 -186 0
120 121 186 0
c gate 187 -117 -119 0
-117 -187 0
-119 -187 0
117 119 187 0
c gate 188 -115 -116 0
-115 -188 0
-116 -188 0
115 116 188 0
c gate 189 -113 -114 0
-113 -189 0
-114 -189 0
113 114 189 0
c gate 190 -111 -112 0
-111 -190 0
-112 -190 0
111 112 190 0
c gate 191 -109 -110 0
-109 -191 0
-110 -191 0
109 110 191 0
c gate 192 -106 -108 0
-106 -192 0
-108 -192 0
106 108 192 0
c gate 193 -102 -103 0
-102 -193 0
-103 -193 0
102 103 193 0
c gate 194 184 185 0
184 -194 0
185 -194 0
-184 -185 194 0
c gate 195 186 187 0
186 -195 0
187 -195 0
-186 -187 195 0
c gate 196 194 195 0
194 -196 0
195 -196 0
-194 -195 196 0
c gate 197 182 -196 0
182 -197 0
-196 -197 0
-182 196 197 0
c gate 198 188 189 0
188 -198 0
189 -198 0
-188 -189 198 0
c gate 199 -197 198 0
-197 -199 0
198 -199 0
197 -198 199 0
c gate 200 -104 -105 0
-104 -200 0
-105 -200 0
104 105 200 0
c gate 201 192 200 0
192 -201 0
200 -201 0
-192 -200 201 0
c gate 202 -28 -29 0
-28 -202 0
-29 -202 0
28 29 202 0
c gate 203 -30 202 0
-30 -203 0
202 -203 0
30 -202 203 0
c gate 204 134 203 0
134 -204 0
203 -204 0
-134 -203 204 0
c gate 205 -30 -31 0
-30 -205 0
-31 -205 0
30 31 205 0
c gate 206 -32 -33 0
-32 -206 0
-33 -206 0
32 33 206 0
c gate 207 205 206 0
205 -207 0
206 -207 0
-205 -206 207 0
c gate 208 204 207 0
204 -208 0
207 -208 0
-204 -207 208 0
c gate 209 154 174 0
154 -209 0
174 -209 0
-154 -174 209 0
c gate 210 208 209 0
208 -210 0
209 -210 0
-208 -209 210 0
c gate 211 190 191 0
190 -211 0
191 -211 0
-190 -191 211 0
c gate 212 210 211 0
210 -212 0
211 -212 0
-210 -211 212 0
c gate 213 -201 212 0
-201 -213 0
212 -213 0
201 -212 213 0
c gate 214 199 -213 0
199 -214 0
-213 -214 0
-199 213 214 0
c gate 215 -193 214 0
-193 -215 0
214 -215 0
193 -214 215 0
c gate 216 192 -215 0
192 -216 0
-215 -216 0
-192 215 216 0
c gate 217 -100 -101 0
-100 -217 0
-101 -217 0
100 101 217 0
c gate 218 193 217 0
193 -218 0
217 -218 0
-193 -217 218 0
c gate 219 212 -218 0
212 -219 0
-218 -219 0
-212 218 219 0
c gate 220 214 -219 0
214 -220 0
-219 -220 0
-214 219 220 0
c gate 221 -98 -99 0
-98 -221 0
-99 -221 0
98 99 221 0
c gate 222 -95 -97 0
-95 -222 0
-97 -222 0
95 97 222 0
c gate 223 -93 -94 0
-93 -223 0
-94 -223 0
93 94 223 0
c gate 224 -91 -92 0
-91 -224 0
-92 -224 0
91 92 224 0
c gate 225 210 224 0
210 -225 0
224 -225 0
-210 -224 225 0
c gate 226 -89 -90 0
-89 -226 0
-90 -226 0
89 90 226 0
c gate 227 -84 -86 0
-84 -227 0
-86 -227 0
84 86 227 0
c gate 228 -87 -88 0
-87 -228 0
-88 -228 0
87 88 228 0
c gate 229 226 228 0
226 -229 0
228 -229 0
-226 -228 229 0
c gate 230 223 225 0
223 -230 0
225 -230 0
-223 -225 230 0
c gate 231 229 230 0
229 -231 0
230 -231 0
-229 -230 231 0
c gate 232 -227 231 0
-227 -232 0
231 -232 0
227 -231 232 0
c gate 233 226 -232 0
226 -233 0
-232 -233 0
-226 232 233 0
c gate 234 -82 -83 0
-82 -234 0
-83 -234 0
82 83 234 0
c gate 235 227 234 0
227 -235 0
234 -235 0
-227 -234 235 0
c gate 236 231 235 0
231 -236 0
235 -236 0
-231 -235 236 0
c gate 237 -80 -81 0
-80 -237 0
-81 -237 0
80 81 237 0
c gate 238 -78 -79 0
-78 -238 0
-79 -238 0
78 79 238 0
c gate 239 -76 -77 0
-76 -239 0
-77 -239 0
76 77 239 0
c gate 240 -73 -75 0
-73 -240 0
-75 -240 0
73 75 240 0
c gate 241 -65 -66 0
-65 -241 0
-66 -241 0
65 66 241 0
c gate 242 -62 -64 0
-62 -242 0
-64 -242 0
62 64 242 0
c gate 243 -60 -61 0
-60 -243 0
-61 -243 0
60 61 243 0
c gate 244 -58 -59 0
-58 -244 0
-59 -244 0
58 59 244 0
c gate 245 243 -244 0
243 -245 0
-244 -245 0
-243 244 245 0
c gate 246 242 -245 0
242 -246 0
-245 -246 0
-242 245 246 0
c gate 247 -67 -68 0
-67 -247 0
-68 -247 0
67 68 247 0
c gate 248 242 243 0
242 -248 0
243 -248 0
-242 -243 248 0
c gate 249 241 248 0
241 -249 0
248 -249 0
-241 -248 249 0
c gate 250 -56 -57 0
-56 -250 0
-57 -250 0
56 57 250 0
c gate 251 244 250 0
244 -251 0
250 -251 0
-244 -250 251 0
c gate 252 249 251 0
249 -252 0
251 -252 0
-249 -251 252 0
c gate 253 247 252 0
247 -253 0
252 -253 0
-247 -252 253 0
c gate 254 -54 -55 0
-54 -254 0
-55 -254 0
54 55 254 0
c gate 255 -51 -53 0
-51 -255 0
-53 -255 0
51 53 255 0
c gate 256 -49 -50 0
-49 -256 0
-50 -256 0
49 50 256 0
c gate 257 -47 -48 0
-47 -257 0
-48 -257 0
47 48 257 0
c gate 258 -45 -46 0
-45 -258 0
-46 -258 0
45 46 258 0
c gate 259 -43 -44 0
-43 -259 0
-44 -259 0
43 44 259 0
c gate 260 -40 -42 0
-40 -260 0
-42 -260 0
40 42 260 0
c gate 261 259 -260 0
259 -261 0
-260 -261 0
-259 260 261 0
c gate 262 258 -261 0
258 -262 0
-261 -262 0
-258 261 262 0
c gate 263 257 -262 0
257 -263 0
-262 -263 0
-257 262 263 0
c gate 264 256 -263 0
256 -264 0
-263 -264 0
-256 263 264 0
c gate 265 255 -264 0
255 -265 0
-264 -265 0
-255 264 265 0
c gate 266 254 -265 0
254 -266 0
-265 -266 0
-254 265 266 0
c gate 267 253 -266 0
253 -267 0
-266 -267 0
-253 266 267 0
c gate 268 246 -267 0
246 -268 0
-267 -268 0
-246 267 268 0
c gate 269 241 -268 0
241 -269 0
-268 -269 0
-241 268 269 0
c gate 270 -71 -72 0
-71 -270 0
-72 -270 0
71 72 270 0
c gate 271 247 270 0
247 -271 0
270 -271 0
-247 -270 271 0
c gate 272 -269 271 0
-269 -272 0
271 -272 0
269 -271 272 0
c gate 273 240 -272 0
240 -273 0
-272 -273 0
-240 272 273 0
c gate 274 239 -273 0
239 -274 0
-273 -274 0
-239 273 274 0
c gate 275 238 -274 0
238 -275 0
-274 -275 0
-238 274 275 0
c gate 276 237 -275 0
237 -276 0
-275 -276 0
-237 275 276 0
c gate 277 236 -276 0
236 -277 0
-276 -277 0
-236 276 277 0
c gate 278 233 -277 0
233 -278 0
-277 -278 0
-233 277 278 0
c gate 279 225 -278 0
225 -279 0
-278 -279 0
-225 278 279 0
c gate 280 223 -279 0
223 -280 0
-279 -280 0
-223 279 280 0
c gate 281 222 -280 0
222 -281 0
-280 -281 0
-222 280 281 0
c gate 282 221 -281 0
221 -282 0
-281 -282 0
-221 281 282 0
c gate 283 220 -282 0
220 -283 0
-282 -283 0
-220 282 283 0
c gate 284 216 -283 0
216 -284 0
-283 -284 0
-216 283 284 0
c gate 285 191 -284 0
191 -285 0
-284 -285 0
-191 284 285 0
c gate 286 190 -285 0
190 -286 0
-285 -286 0
-190 285 286 0
c gate 287 189 -286 0
189 -287 0
-286 -287 0
-189 286 287 0
c gate 288 188 -287 0
188 -288 0
-287 -288 0
-188 287 288 0
c gate 289 187 -288 0
187 -289 0
-288 -289 0
-187 288 289 0
c gate 290 186 -289 0
186 -290 0
-289 -290 0
-186 289 290 0
c gate 291 185 -290 0
185 -291 0
-290 -291 0
-185 290 291 0
c gate 292 184 -291 0
184 -292 0
-291 -292 0
-184 291 292 0
c gate 293 183 -292 0
183 -293 0
-292 -293 0
-183 292 293 0
c gate 294 173 -293 0
173 -294 0
-293 -294 0
-173 293 294 0
c gate 295 -25 -294 0
-25 -295 0
-294 -295 0
25 294 295 0
c gate 296 154 -295 0
154 -296 0
-295 -296 0
-154 295 296 0
c gate 297 156 -296 0
156 -297 0
-296 -297 0
-156 296 297 0
c gate 298 -25 27 0
-25 -298 0
27 -298 0
25 -27 298 0
c gate 299 154 298 0
154 -299 0
298 -299 0
-154 -298 299 0
c gate 300 294 299 0
294 -300 0
299 -300 0
-294 -299 300 0
c gate 301 -23 -300 0
-23 -301 0
-300 -301 0
23 300 301 0
c gate 302 -297 301 0
-297 -302 0
301 -302 0
297 -301 302 0
c gate 303 241 247 0
241 -303 0
247 -303 0
-241 -247 303 0
c gate 304 -69 -70 0
-69 -304 0
-70 -304 0
69 70 304 0
c gate 305 270 304 0
270 -305 0
304 -305 0
-270 -304 305 0
c gate 306 303 305 0
303 -306 0
305 -306 0
-303 -305 306 0
c gate 307 253 305 0
253 -307 0
305 -307 0
-253 -305 307 0
c gate 308 -38 -39 0
-38 -308 0
-39 -308 0
38 39 308 0
c gate 309 -36 -37 0
-36 -309 0
-37 -309 0
36 37 309 0
c gate 310 -34 -35 0
-34 -310 0
-35 -310 0
34 35 310 0
c gate 311 -13 -24 0
-13 -311 0
-24 -311 0
13 24 311 0
c gate 312 -96 -107 0
-96 -312 0
-107 -312 0
96 107 312 0
c gate 313 -74 -85 0
-74 -313 0
-85 -313 0
74 85 313 0
c gate 314 -52 -63 0
-52 -314 0
-63 -314 0
52 63 314 0
c gate 315 313 -314 0
313 -315 0
-314 -315 0
-313 314 315 0
c gate 316 312 -315 0
312 -316 0
-315 -316 0
-312 315 316 0
c gate 317 254 255 0
254 -317 0
255 -317 0
-254 -255 317 0
c gate 318 256 257 0
256 -318 0
257 -318 0
-256 -257 318 0
c gate 319 317 318 0
317 -319 0
318 -319 0
-317 -318 319 0
c gate 320 -248 303 0
-248 -320 0
303 -320 0
248 -303 320 0
c gate 321 43 44 0
43 -321 0
44 -321 0
-43 -44 321 0
c gate 322 45 46 0
45 -322 0
46 -322 0
-45 -46 322 0
c gate 323 321 322 0
321 -323 0
322 -323 0
-321 -322 323 0
c gate 324 320 -323 0
320 -324 0
-323 -324 0
-320 323 324 0
c gate 325 260 308 0
260 -325 0
308 -325 0
-260 -308 325 0
c gate 326 258 259 0
258 -326 0
259 -326 0
-258 -259 326 0
c gate 327 -320 -326 0
-320 -327 0
-326 -327 0
320 326 327 0
c gate 328 325 -327 0
325 -328 0
-327 -328 0
-325 327 328 0
c gate 329 -324 328 0
-324 -329 0
328 -329 0
324 -328 329 0
c gate 330 319 329 0
319 -330 0
329 -330 0
-319 -329 330 0
c gate 331 307 -330 0
307 -331 0
-330 -331 0
-307 330 331 0
c gate 332 307 319 0
307 -332 0
319 -332 0
-307 -319 332 0
c gate 333 309 310 0
309 -333 0
310 -333 0
-309 -310 333 0
c gate 334 -2 -118 0
-2 -334 0
-118 -334 0
2 118 334 0
c gate 335 311 334 0
311 -335 0
334 -335 0
-311 -334 335 0
c gate 336 333 335 0
333 -336 0
335 -336 0
-333 -335 336 0
c gate 337 332 336 0
332 -337 0
336 -337 0
-332 -336 337 0
c gate 338 -331 337 0
-331 -338 0
337 -338 0
331 -337 338 0
c gate 339 -316 338 0
-316 -339 0
338 -339 0
316 -338 339 0
c gate 340 311 -339 0
311 -340 0
-339 -340 0
-311 339 340 0
c gate 341 310 -340 0
310 -341 0
-340 -341 0
-310 340 341 0
c gate 342 309 -341 0
309 -342 0
-341 -342 0
-309 341 342 0
c gate 343 308 -342 0
308 -343 0
-342 -343 0
-308 342 343 0
c gate 344 260 -343 0
260 -344 0
-343 -344 0
-260 343 344 0
c gate 345 259 -344 0
259 -345 0
-344 -345 0
-259 344 345 0
c gate 346 258 -345 0
258 -346 0
-345 -346 0
-258 345 346 0
c gate 347 257 -346 0
257 -347 0
-346 -347 0
-257 346 347 0
c gate 348 256 -347 0
256 -348 0
-347 -348 0
-256 347 348 0
c gate 349 255 -348 0
255 -349 0
-348 -349 0
-255 348 349 0
c gate 350 254 -349 0
254 -350 0
-349 -350 0
-254 349 350 0
c gate 351 307 -350 0
307 -351 0
-350 -351 0
-307 350 351 0
c gate 352 246 -351 0
246 -352 0
-351 -352 0
-246 351 352 0
c gate 353 306 -352 0
306 -353 0
-352 -353 0
-306 352 353 0
c gate 354 -247 304 0
-247 -354 0
304 -354 0
247 -304 354 0
c gate 355 270 -354 0
270 -355 0
-354 -355 0
-270 354 355 0
c gate 356 -353 355 0
-353 -356 0
355 -356 0
353 -355 356 0
c gate 357 240 -356 0
240 -357 0
-356 -357 0
-240 356 357 0
c gate 358 239 -357 0
239 -358 0
-357 -358 0
-239 357 358 0
c gate 359 238 -358 0
238 -359 0
-358 -359 0
-238 358 359 0
c gate 360 237 -359 0
237 -360 0
-359 -360 0
-237 359 360 0
c gate 361 236 -360 0
236 -361 0
-360 -361 0
-236 360 361 0
c gate 362 233 -361 0
233 -362 0
-361 -362 0
-233 361 362 0
c gate 363 225 -362 0
225 -363 0
-362 -363 0
-225 362 363 0
c gate 364 223 -363 0
223 -364 0
-363 -364 0
-223 363 364 0
c gate 365 221 222 0
221 -365 0
222 -365 0
-221 -222 365 0
c gate 366 192 365 0
192 -366 0
365 -366 0
-192 -365 366 0
c gate 367 220 366 0
220 -367 0
366 -367 0
-220 -366 367 0
c gate 368 -364 367 0
-364 -368 0
367 -368 0
364 -367 368 0
c gate 369 220 -221 0
220 -369 0
-221 -369 0
-220 221 369 0
c gate 370 216 -369 0
216 -370 0
-369 -370 0
-216 369 370 0
c gate 371 -368 370 0
-368 -371 0
370 -371 0
368 -370 371 0
c gate 372 191 -371 0
191 -372 0
-371 -372 0
-191 371 372 0
c gate 373 190 -372 0
190 -373 0
-372 -373 0
-190 372 373 0
c gate 374 189 -373 0
189 -374 0
-373 -374 0
-189 373 374 0
c gate 375 188 -374 0
188 -375 0
-374 -375 0
-188 374 375 0
c gate 376 187 -375 0
187 -376 0
-375 -376 0
-187 375 376 0
c gate 377 186 -376 0
186 -377 0
-376 -377 0
-186 376 377 0
c gate 378 185 -377 0
185 -378 0
-377 -378 0
-185 377 378 0
c gate 379 184 -378 0
184 -379 0
-378 -379 0
-184 378 379 0
c gate 380 183 -379 0
183 -380 0
-379 -380 0
-183 379 380 0
c gate 381 173 -380 0
173 -381 0
-380 -381 0
-173 380 381 0
c gate 382 -25 -381 0
-25 -382 0
-381 -382 0
25 381 382 0
c gate 383 154 -382 0
154 -383 0
-382 -383 0
-154 382 383 0
c gate 384 156 -383 0
156 -384 0
-383 -384 0
-156 383 384 0
c gate 385 299 381 0
299 -385 0
381 -385 0
-299 -381 385 0
c gate 386 -23 -385 0
-23 -386 0
-385 -386 0
23 385 386 0
c gate 387 -384 386 0
-384 -387 0
386 -387 0
384 -386 387 0
c gate 388 -302 387 0
-302 -388 0
387 -388 0
302 -387 388 0
c gate 389 302 -387 0
302 -389 0
-387 -389 0
-302 387 389 0
c gate 390 -388 -389 0
-388 -390 0
-389 -390 0
388 389 390 0
c gate 391 28 33 0
28 -391 0
33 -391 0
-28 -33 391 0
c gate 392 -202 -391 0
-202 -392 0
-391 -392 0
202 391 392 0
c gate 393 23 -134 0
23 -393 0
-134 -393 0
-23 134 393 0
c gate 394 -21 205 0
-21 -394 0
205 -394 0
21 -205 394 0
c gate 395 -393 394 0
-393 -395 0
394 -395 0
393 -394 395 0
c gate 396 -392 395 0
-392 -396 0
395 -396 0
392 -395 396 0
c gate 397 -390 396 0
-390 -397 0
396 -397 0
390 -396 397 0
c gate 398 -29 205 0
-29 -398 0
205 -398 0
29 -205 398 0
c gate 399 -182 398 0
-182 -399 0
398 -399 0
182 -398 399 0
c gate 400 210 -399 0
210 -400 0
-399 -400 0
-210 399 400 0
c gate 401 190 199 0
190 -401 0
199 -401 0
-190 -199 401 0
c gate 402 105 -106 0
105 -402 0
-106 -402 0
-105 106 402 0
c gate 403 -108 -402 0
-108 -403 0
-402 -403 0
108 402 403 0
c gate 404 -109 -403 0
-109 -404 0
-403 -404 0
109 403 404 0
c gate 405 -110 -404 0
-110 -405 0
-404 -405 0
110 404 405 0
c gate 406 191 201 0
191 -406 0
201 -406 0
-191 -201 406 0
c gate 407 101 -102 0
101 -407 0
-102 -407 0
-101 102 407 0
c gate 408 -103 -407 0
-103 -408 0
-407 -408 0
103 407 408 0
c gate 409 223 365 0
223 -409 0
365 -409 0
-223 -365 409 0
c gate 410 90 -91 0
90 -410 0
-91 -410 0
-90 91 410 0
c gate 411 -92 -410 0
-92 -411 0
-410 -411 0
92 410 411 0
c gate 412 224 226 0
224 -412 0
226 -412 0
-224 -226 412 0
c gate 413 83 -84 0
83 -413 0
-84 -413 0
-83 84 413 0
c gate 414 -86 -413 0
-86 -414 0
-413 -414 0
86 413 414 0
c gate 415 -87 -414 0
-87 -415 0
-414 -415 0
87 414 415 0
c gate 416 -88 -415 0
-88 -416 0
-415 -416 0
88 415 416 0
c gate 417 228 235 0
228 -417 0
235 -417 0
-228 -235 417 0
c gate 418 79 -80 0
79 -418 0
-80 -418 0
-79 80 418 0
c gate 419 -81 -418 0
-81 -419 0
-418 -419 0
81 418 419 0
c gate 420 237 238 0
237 -420 0
238 -420 0
-237 -238 420 0
c gate 421 72 -73 0
72 -421 0
-73 -421 0
-72 73 421 0
c gate 422 -75 -421 0
-75 -422 0
-421 -422 0
75 421 422 0
c gate 423 -76 -422 0
-76 -423 0
-422 -423 0
76 422 423 0
c gate 424 -77 -423 0
-77 -424 0
-423 -424 0
77 423 424 0
c gate 425 61 -62 0
61 -425 0
-62 -425 0
-61 62 425 0
c gate 426 -64 -425 0
-64 -426 0
-425 -426 0
64 425 426 0
c gate 427 -65 -426 0
-65 -427 0
-426 -427 0
65 426 427 0
c gate 428 -66 -427 0
-66 -428 0
-427 -428 0
66 427 428 0
c gate 429 57 -58 0
57 -429 0
-58 -429 0
-57 58 429 0
c gate 430 -59 -429 0
-59 -430 0
-429 -430 0
59 429 430 0
c gate 431 256 317 0
256 -431 0
317 -431 0
-256 -317 431 0
c gate 432 46 -47 0
46 -432 0
-47 -432 0
-46 47 432 0
c gate 433 -48 -432 0
-48 -433 0
-432 -433 0
48 432 433 0
c gate 434 257 258 0
257 -434 0
258 -434 0
-257 -258 434 0
c gate 435 39 -40 0
39 -435 0
-40 -435 0
-39 40 435 0
c gate 436 -42 -435 0
-42 -436 0
-435 -436 0
42 435 436 0
c gate 437 -43 -436 0
-43 -437 0
-436 -437 0
43 436 437 0
c gate 438 -44 -437 0
-44 -438 0
-437 -438 0
44 437 438 0
c gate 439 259 325 0
259 -439 0
325 -439 0
-259 -325 439 0
c gate 440 35 -36 0
35 -440 0
-36 -440 0
-35 36 440 0
c gate 441 -37 -440 0
-37 -441 0
-440 -441 0
37 440 441 0
c gate 442 41 -52 0
41 -442 0
-52 -442 0
-41 52 442 0
c gate 443 -63 -442 0
-63 -443 0
-442 -443 0
63 442 443 0
c gate 444 -74 -443 0
-74 -444 0
-443 -444 0
74 443 444 0
c gate 445 -85 -444 0
-85 -445 0
-444 -445 0
85 444 445 0
c gate 446 -96 -445 0
-96 -446 0
-445 -446 0
96 445 446 0
c gate 447 -107 -446 0
-107 -447 0
-446 -447 0
107 446 447 0
c gate 448 -118 -447 0
-118 -448 0
-447 -448 0
118 447 448 0
c gate 449 -2 -448 0
-2 -449 0
-448 -449 0
2 448 449 0
c gate 450 -13 -449 0
-13 -450 0
-449 -450 0
13 449 450 0
c gate 451 -24 -450 0
-24 -451 0
-450 -451 0
24 450 451 0
c gate 452 333 -451 0
333 -452 0
-451 -452 0
-333 451 452 0
c gate 453 441 -452 0
441 -453 0
-452 -453 0
-441 452 453 0
c gate 454 439 -453 0
439 -454 0
-453 -454 0
-439 453 454 0
c gate 455 438 -454 0
438 -455 0
-454 -455 0
-438 454 455 0
c gate 456 434 -455 0
434 -456 0
-455 -456 0
-434 455 456 0
c gate 457 433 -456 0
433 -457 0
-456 -457 0
-433 456 457 0
c gate 458 431 -457 0
431 -458 0
-457 -458 0
-431 457 458 0
c gate 459 50 317 0
50 -459 0
317 -459 0
-50 -317 459 0
c gate 460 53 -54 0
53 -460 0
-54 -460 0
-53 54 460 0
c gate 461 -55 -460 0
-55 -461 0
-460 -461 0
55 460 461 0
c gate 462 -459 461 0
-459 -462 0
461 -462 0
459 -461 462 0
c gate 463 -458 462 0
-458 -463 0
462 -463 0
458 -462 463 0
c gate 464 251 -463 0
251 -464 0
-463 -464 0
-251 463 464 0
c gate 465 430 -464 0
430 -465 0
-464 -465 0
-430 464 465 0
c gate 466 249 -465 0
249 -466 0
-465 -466 0
-249 465 466 0
c gate 467 428 -466 0
428 -467 0
-466 -467 0
-428 466 467 0
c gate 468 -67 -467 0
-67 -468 0
-467 -468 0
67 467 468 0
c gate 469 -68 -468 0
-68 -469 0
-468 -469 0
68 468 469 0
c gate 470 -69 -469 0
-69 -470 0
-469 -470 0
69 469 470 0
c gate 471 -70 -470 0
-70 -471 0
-470 -471 0
70 470 471 0
c gate 472 239 240 0
239 -472 0
240 -472 0
-239 -240 472 0
c gate 473 270 472 0
270 -473 0
472 -473 0
-270 -472 473 0
c gate 474 -471 473 0
-471 -474 0
473 -474 0
471 -473 474 0
c gate 475 424 -474 0
424 -475 0
-474 -475 0
-424 474 475 0
c gate 476 420 -475 0
420 -476 0
-475 -476 0
-420 475 476 0
c gate 477 419 -476 0
419 -477 0
-476 -477 0
-419 476 477 0
c gate 478 417 -477 0
417 -478 0
-477 -478 0
-417 477 478 0
c gate 479 416 -478 0
416 -479 0
-478 -479 0
-416 478 479 0
c gate 480 412 -479 0
412 -480 0
-479 -480 0
-412 479 480 0
c gate 481 411 -480 0
411 -481 0
-480 -481 0
-411 480 481 0
c gate 482 409 -481 0
409 -482 0
-481 -482 0
-409 481 482 0
c gate 483 94 365 0
94 -483 0
365 -483 0
-94 -365 483 0
c gate 484 97 -98 0
97 -484 0
-98 -484 0
-97 98 484 0
c gate 485 -99 -484 0
-99 -485 0
-484 -485 0
99 484 485 0
c gate 486 -483 485 0
-483 -486 0
485 -486 0
483 -485 486 0
c gate 487 -482 486 0
-482 -487 0
486 -487 0
482 -486 487 0
c gate 488 218 -487 0
218 -488 0
-487 -488 0
-218 487 488 0
c gate 489 408 -488 0
408 -489 0
-488 -489 0
-408 488 489 0
c gate 490 406 -489 0
406 -490 0
-489 -490 0
-406 489 490 0
c gate 491 405 -490 0
405 -491 0
-490 -491 0
-405 490 491 0
c gate 492 401 -491 0
401 -492 0
-491 -492 0
-401 491 492 0
c gate 493 112 199 0
112 -493 0
199 -493 0
-112 -199 493 0
c gate 494 114 -115 0
114 -494 0
-115 -494 0
-114 115 494 0
c gate 495 -116 -494 0
-116 -495 0
-494 -495 0
116 494 495 0
c gate 496 -117 -495 0
-117 -496 0
-495 -496 0
117 495 496 0
c gate 497 -119 -496 0
-119 -497 0
-496 -497 0
119 496 497 0
c gate 498 -120 -497 0
-120 -498 0
-497 -498 0
120 497 498 0
c gate 499 -121 -498 0
-121 -499 0
-498 -499 0
121 498 499 0
c gate 500 194 -499 0
194 -500 0
-499 -500 0
-194 499 500 0
c gate 501 123 -124 0
123 -501 0
-124 -501 0
-123 124 501 0
c gate 502 -125 -501 0
-125 -502 0
-501 -502 0
125 501 502 0
c gate 503 -500 502 0
-500 -503 0
502 -503 0
500 -502 503 0
c gate 504 -493 503 0
-493 -504 0
503 -504 0
493 -503 504 0
c gate 505 -492 504 0
-492 -505 0
504 -505 0
492 -504 505 0
c gate 506 400 -505 0
400 -506 0
-505 -506 0
-400 505 506 0
c gate 507 127 -128 0
127 -507 0
-128 -507 0
-127 128 507 0
c gate 508 -3 -507 0
-3 -508 0
-507 -508 0
3 507 508 0
c gate 509 -4 -508 0
-4 -509 0
-508 -509 0
4 508 509 0
c gate 510 -5 -509 0
-5 -510 0
-509 -510 0
5 509 510 0
c gate 511 -6 -510 0
-6 -511 0
-510 -511 0
6 510 511 0
c gate 512 -7 -511 0
-7 -512 0
-511 -512 0
7 511 512 0
c gate 513 -8 -512 0
-8 -513 0
-512 -513 0
8 512 513 0
c gate 514 -9 -513 0
-9 -514 0
-513 -514 0
9 513 514 0
c gate 515 -10 -514 0
-10 -515 0
-514 -515 0
10 514 515 0
c gate 516 -11 -515 0
-11 -516 0
-515 -516 0
11 515 516 0
c gate 517 175 -516 0
175 -517 0
-516 -517 0
-175 516 517 0
c gate 518 14 -15 0
14 -518 0
-15 -518 0
-14 15 518 0
c gate 519 -16 -518 0
-16 -519 0
-518 -519 0
16 518 519 0
c gate 520 -517 519 0
-517 -520 0
519 -520 0
517 -519 520 0
c gate 521 174 -520 0
174 -521 0
-520 -521 0
-174 520 521 0
c gate 522 18 -19 0
18 -522 0
-19 -522 0
-18 19 522 0
c gate 523 -20 -522 0
-20 -523 0
-522 -523 0
20 522 523 0
c gate 524 -521 523 0
-521 -524 0
523 -524 0
521 -523 524 0
c gate 525 -21 -524 0
-21 -525 0
-524 -525 0
21 524 525 0
c gate 526 -22 -525 0
-22 -526 0
-525 -526 0
22 525 526 0
c gate 527 134 149 0
134 -527 0
149 -527 0
-134 -149 527 0
c gate 528 -526 527 0
-526 -528 0
527 -528 0
526 -527 528 0
c gate 529 25 -26 0
25 -529 0
-26 -529 0
-25 26 529 0
c gate 530 -27 -529 0
-27 -530 0
-529 -530 0
27 529 530 0
c gate 531 -528 530 0
-528 -531 0
530 -531 0
528 -530 531 0
c gate 532 203 -531 0
203 -532 0
-531 -532 0
-203 531 532 0
c gate 533 -31 532 0
-31 -533 0
532 -533 0
31 -532 533 0
c gate 534 -506 533 0
-506 -534 0
533 -534 0
506 -533 534 0
c gate 535 506 -533 0
506 -535 0
-533 -535 0
-506 533 535 0
c gate 536 -534 -535 0
-534 -536 0
-535 -536 0
534 535 536 0
c gate 537 85 -96 0
85 -537 0
-96 -537 0
-85 96 537 0
c gate 538 -107 -537 0
-107 -538 0
-537 -538 0
107 537 538 0
c gate 539 -118 -538 0
-118 -539 0
-538 -539 0
118 538 539 0
c gate 540 -2 -539 0
-2 -540 0
-539 -540 0
2 539 540 0
c gate 541 -13 -540 0
-13 -541 0
-540 -541 0
13 540 541 0
c gate 542 -24 -541 0
-24 -542 0
-541 -542 0
24 541 542 0
c gate 543 333 -542 0
333 -543 0
-542 -543 0
-333 542 543 0
c gate 544 441 -543 0
441 -544 0
-543 -544 0
-441 543 544 0
c gate 545 439 -544 0
439 -545 0
-544 -545 0
-439 544 545 0
c gate 546 438 -545 0
438 -546 0
-545 -546 0
-438 545 546 0
c gate 547 434 -546 0
434 -547 0
-546 -547 0
-434 546 547 0
c gate 548 433 -547 0
433 -548 0
-547 -548 0
-433 547 548 0
c gate 549 431 -548 0
431 -549 0
-548 -549 0
-431 548 549 0
c gate 550 462 -549 0
462 -550 0
-549 -550 0
-462 549 550 0
c gate 551 251 -550 0
251 -551 0
-550 -551 0
-251 550 551 0
c gate 552 430 -551 0
430 -552 0
-551 -552 0
-430 551 552 0
c gate 553 249 -552 0
249 -553 0
-552 -553 0
-249 552 553 0
c gate 554 428 -553 0
428 -554 0
-553 -554 0
-428 553 554 0
c gate 555 -67 -554 0
-67 -555 0
-554 -555 0
67 554 555 0
c gate 556 -68 -555 0
-68 -556 0
-555 -556 0
68 555 556 0
c gate 557 -69 -556 0
-69 -557 0
-556 -557 0
69 556 557 0
c gate 558 -70 -557 0
-70 -558 0
-557 -558 0
70 557 558 0
c gate 559 473 -558 0
473 -559 0
-558 -559 0
-473 558 559 0
c gate 560 424 -559 0
424 -560 0
-559 -560 0
-424 559 560 0
c gate 561 420 -560 0
420 -561 0
-560 -561 0
-420 560 561 0
c gate 562 419 -561 0
419 -562 0
-561 -562 0
-419 561 562 0
c gate 563 417 -562 0
417 -563 0
-562 -563 0
-417 562 563 0
c gate 564 416 -563 0
416 -564 0
-563 -564 0
-416 563 564 0
c gate 565 412 -564 0
412 -565 0
-564 -565 0
-412 564 565 0
c gate 566 411 -565 0
411 -566 0
-565 -566 0
-411 565 566 0
c gate 567 409 -566 0
409 -567 0
-566 -567 0
-409 566 567 0
c gate 568 486 -567 0
486 -568 0
-567 -568 0
-486 567 568 0
c gate 569 218 -568 0
218 -569 0
-568 -569 0
-218 568 569 0
c gate 570 408 -569 0
408 -570 0
-569 -570 0
-408 569 570 0
c gate 571 406 -570 0
406 -571 0
-570 -571 0
-406 570 571 0
c gate 572 405 -571 0
405 -572 0
-571 -572 0
-405 571 572 0
c gate 573 401 -572 0
401 -573 0
-572 -573 0
-401 572 573 0
c gate 574 504 -573 0
504 -574 0
-573 -574 0
-504 573 574 0
c gate 575 400 -574 0
400 -575 0
-574 -575 0
-400 574 575 0
c gate 576 -532 -575 0
-532 -576 0
-575 -576 0
532 575 576 0
c gate 577 -536 -576 0
-536 -577 0
-576 -577 0
536 576 577 0
c gate 578 -506 576 0
-506 -578 0
576 -578 0
506 -576 578 0
c gate 579 29 -30 0
29 -579 0
-30 -579 0
-29 30 579 0
c gate 580 -31 -579 0
-31 -580 0
-579 -580 0
31 579 580 0
c gate 581 -578 580 0
-578 -581 0
580 -581 0
578 -580 581 0
c gate 582 -577 581 0
-577 -582 0
581 -582 0
577 -581 582 0
c gate 583 -32 -582 0
-32 -583 0
-582 -583 0
32 582 583 0
c gate 584 -397 583 0
-397 -584 0
583 -584 0
397 -583 584 0
c gate 585 -398 -536 0
-398 -585 0
-536 -585 0
398 536 585 0
c gate 586 32 -585 0
32 -586 0
-585 -586 0
-32 585 586 0
c gate 587 -33 -586 0
-33 -587 0
-586 -587 0
33 586 587 0
c gate 588 -584 587 0
-584 -588 0
587 -588 0
584 -587 588 0
c gate 589 420 472 0
420 -589 0
472 -589 0
-420 -472 589 0
c gate 590 182 589 0
182 -590 0
589 -590 0
-182 -589 590 0
c gate 591 236 590 0
236 -591 0
590 -591 0
-236 -590 591 0
c gate 592 319 -329 0
319 -592 0
-329 -592 0
-319 329 592 0
c gate 593 252 -592 0
252 -593 0
-592 -593 0
-252 592 593 0
c gate 594 303 -593 0
303 -594 0
-593 -594 0
-303 593 594 0
c gate 595 591 -594 0
591 -595 0
-594 -595 0
-591 594 595 0
c gate 596 230 -236 0
230 -596 0
-236 -596 0
-230 236 596 0
c gate 597 -595 -596 0
-595 -597 0
-596 -597 0
595 596 597 0
c gate 598 365 -597 0
365 -598 0
-597 -598 0
-365 597 598 0
c gate 599 220 -598 0
220 -599 0
-598 -599 0
-220 598 599 0
c gate 600 199 212 0
199 -600 0
212 -600 0
-199 -212 600 0
c gate 601 182 600 0
182 -601 0
600 -601 0
-182 -600 601 0
c gate 602 -599 601 0
-599 -602 0
601 -602 0
599 -601 602 0
c gate 603 177 -197 0
177 -603 0
-197 -603 0
-177 197 603 0
c gate 604 209 -603 0
209 -604 0
-603 -604 0
-209 603 604 0
c gate 605 208 -604 0
208 -605 0
-604 -605 0
-208 604 605 0
c gate 606 -602 605 0
-602 -606 0
605 -606 0
602 -605 606 0
c gate 607 -331 -338 0
-331 -607 0
-338 -607 0
331 338 607 0
c gate 608 591 607 0
591 -608 0
607 -608 0
-591 -607 608 0
c gate 609 -66 -608 0
-66 -609 0
-608 -609 0
66 608 609 0
c gate 610 332 -609 0
332 -610 0
-609 -610 0
-332 609 610 0
c gate 611 253 -319 0
253 -611 0
-319 -611 0
-253 319 611 0
c gate 612 306 -611 0
306 -612 0
-611 -612 0
-306 611 612 0
c gate 613 591 -612 0
591 -613 0
-612 -613 0
-591 612 613 0
c gate 614 -610 -613 0
-610 -614 0
-613 -614 0
610 613 614 0
c gate 615 212 220 0
212 -615 0
220 -615 0
-212 -220 615 0
c gate 616 365 615 0
365 -616 0
615 -616 0
-365 -615 616 0
c gate 617 223 224 0
223 -617 0
224 -617 0
-223 -224 617 0
c gate 618 616 617 0
616 -618 0
617 -618 0
-616 -617 618 0
c gate 619 236 -618 0
236 -619 0
-618 -619 0
-236 618 619 0
c gate 620 -614 -619 0
-614 -620 0
-619 -620 0
614 619 620 0
c gate 621 -230 -614 0
-230 -621 0
-614 -621 0
230 614 621 0
c gate 622 -220 -621 0
-220 -622 0
-621 -622 0
220 621 622 0
c gate 623 -236 618 0
-236 -623 0
618 -623 0
236 -618 623 0
c gate 624 -622 -623 0
-622 -624 0
-623 -624 0
622 623 624 0
c gate 625 600 -624 0
600 -625 0
-624 -625 0
-600 624 625 0
c gate 626 -620 -625 0
-620 -626 0
-625 -626 0
620 625 626 0
c gate 627 210 -626 0
210 -627 0
-626 -627 0
-210 626 627 0
c gate 628 196 -627 0
196 -628 0
-627 -628 0
-196 627 628 0
c gate 629 177 -626 0
177 -629 0
-626 -629 0
-177 626 629 0
c gate 630 -210 -629 0
-210 -630 0
-629 -630 0
210 629 630 0
c gate 631 181 -630 0
181 -631 0
-630 -631 0
-181 630 631 0
c gate 632 -628 631 0
-628 -632 0
631 -632 0
628 -631 632 0
c gate 633 -177 210 0
-177 -633 0
210 -633 0
177 -210 633 0
c gate 634 -208 626 0
-208 -634 0
626 -634 0
208 -626 634 0
c gate 635 -633 -634 0
-633 -635 0
-634 -635 0
633 634 635 0
c gate 636 -632 635 0
-632 -636 0
635 -636 0
632 -635 636 0
c gate 637 -606 -636 0
-606 -637 0
-636 -637 0
606 636 637 0
c gate 638 606 636 0
606 -638 0
636 -638 0
-606 -636 638 0
c gate 639 -637 -638 0
-637 -639 0
-638 -639 0
637 638 639 0
c gate 640 325 -333 0
325 -640 0
-333 -640 0
-325 333 640 0
c gate 641 326 -640 0
326 -641 0
-640 -641 0
-326 640 641 0
c gate 642 318 -641 0
318 -642 0
-641 -642 0
-318 641 642 0
c gate 643 317 -642 0
317 -643 0
-642 -643 0
-317 642 643 0
c gate 644 253 -643 0
253 -644 0
-643 -644 0
-253 643 644 0
c gate 645 -320 -644 0
-320 -645 0
-644 -645 0
320 644 645 0
c gate 646 591 -645 0
591 -646 0
-645 -646 0
-591 645 646 0
c gate 647 236 -420 0
236 -647 0
-420 -647 0
-236 420 647 0
c gate 648 -229 230 0
-229 -648 0
230 -648 0
229 -230 648 0
c gate 649 365 -648 0
365 -649 0
-648 -649 0
-365 648 649 0
c gate 650 -647 649 0
-647 -650 0
649 -650 0
647 -649 650 0
c gate 651 -646 650 0
-646 -651 0
650 -651 0
646 -650 651 0
c gate 652 615 -651 0
615 -652 0
-651 -652 0
-615 651 652 0
c gate 653 214 -652 0
214 -653 0
-652 -653 0
-214 652 653 0
c gate 654 -591 -648 0
-591 -654 0
-648 -654 0
591 648 654 0
c gate 655 312 313 0
312 -655 0
313 -655 0
-312 -313 655 0
c gate 656 338 -655 0
338 -656 0
-655 -656 0
-338 655 656 0
c gate 657 305 645 0
305 -657 0
645 -657 0
-305 -645 657 0
c gate 658 -656 657 0
-656 -658 0
657 -658 0
656 -657 658 0
c gate 659 231 658 0
231 -659 0
658 -659 0
-231 -658 659 0
c gate 660 -654 -659 0
-654 -660 0
-659 -660 0
654 659 660 0
c gate 661 -647 -660 0
-647 -661 0
-660 -661 0
647 660 661 0
c gate 662 616 -661 0
616 -662 0
-661 -662 0
-616 661 662 0
c gate 663 218 -365 0
218 -663 0
-365 -663 0
-218 365 663 0
c gate 664 600 663 0
600 -664 0
663 -664 0
-600 -663 664 0
c gate 665 214 -664 0
214 -665 0
-664 -665 0
-214 664 665 0
c gate 666 -662 665 0
-662 -666 0
665 -666 0
662 -665 666 0
c gate 667 653 -666 0
653 -667 0
-666 -667 0
-653 666 667 0
c gate 668 -653 666 0
-653 -668 0
666 -668 0
653 -666 668 0
c gate 669 -667 -668 0
-667 -669 0
-668 -669 0
667 668 669 0
c gate 670 175 -210 0
175 -670 0
-210 -670 0
-175 210 670 0
c gate 671 -175 210 0
-175 -671 0
210 -671 0
175 -210 671 0
c gate 672 -154 204 0
-154 -672 0
204 -672 0
154 -204 672 0
c gate 673 196 207 0
196 -673 0
207 -673 0
-196 -207 673 0
c gate 674 182 673 0
182 -674 0
673 -674 0
-182 -673 674 0
c gate 675 -672 674 0
-672 -675 0
674 -675 0
672 -674 675 0
c gate 676 -671 675 0
-671 -676 0
675 -676 0
671 -675 676 0
c gate 677 -670 676 0
-670 -677 0
676 -677 0
670 -676 677 0
c gate 678 -669 677 0
-669 -678 0
677 -678 0
669 -677 678 0
c gate 679 -1 -41 0
-1 -679 0
-41 -679 0
1 41 679 0
c gate 680 -97 679 0
-97 -680 0
679 -680 0
97 -679 680 0
c gate 681 314 680 0
314 -681 0
680 -681 0
-314 -680 681 0
c gate 682 338 681 0
338 -682 0
681 -682 0
-338 -681 682 0
c gate 683 -656 682 0
-656 -683 0
682 -683 0
656 -682 683 0
c gate 684 600 683 0
600 -684 0
683 -684 0
-600 -683 684 0
c gate 685 591 684 0
591 -685 0
684 -685 0
-591 -684 685 0
c gate 686 253 -305 0
253 -686 0
-305 -686 0
-253 305 686 0
c gate 687 591 686 0
591 -687 0
686 -687 0
-591 -686 687 0
c gate 688 -97 98 0
-97 -688 0
98 -688 0
97 -98 688 0
c gate 689 -484 -688 0
-484 -689 0
-688 -689 0
484 688 689 0
c gate 690 -687 689 0
-687 -690 0
689 -690 0
687 -689 690 0
c gate 691 182 617 0
182 -691 0
617 -691 0
-182 -617 691 0
c gate 692 -690 691 0
-690 -692 0
691 -692 0
690 -691 692 0
c gate 693 -685 -692 0
-685 -693 0
-692 -693 0
685 692 693 0
c gate 694 616 -693 0
616 -694 0
-693 -694 0
-616 693 694 0
c gate 695 -678 -694 0
-678 -695 0
-694 -695 0
678 694 695 0
c gate 696 -639 695 0
-639 -696 0
695 -696 0
639 -695 696 0
c gate 697 -588 696 0
-588 -697 0
696 -697 0
588 -696 697 0
c PO
-697 0
